
  22   10
  10   10   10   10   10   10   10   10   10   10

   0   0   0   0   0   0   0   0   0   0   0   5 2 3 4 5 7 
   6   0   0  10   0   0   0   0   0   0   0   3 9 8 6 
   7   0   0   0   0   0   0   0   0  10   0   2 8 6 
   3  10   0   0   0   0   0   0   0   0   0   2 8 6 
   2   0   0   0   0  10   0   0   0   0   0   3 12 11 9 
  10   0   0   0   0   0   0   0   0   0  10   3 12 11 10 
   9   0   0   0   0   0  10   0   0   0   0   2 11 10 
   2   0   0   0   0   0   0   0   0   0  10   2 14 10 
   4  10   0   0   0   0   0   0   0   0   0   1 10 
   8   0   0   0   0  10   0   0   0   0   0   3 16 15 13 
   4   0   0   0   0  10   0   0   0   0   0   3 16 14 13 
   7   0   0   0   0   0   0  10   0   0   0   2 17 14 
   6   0   0  10   0   0   0   0   0   0   0   3 21 19 18 
   4   0   0  10   0   0   0   0   0   0   0   3 21 20 19 
   3   0   0  10   0   0   0   0   0   0   0   2 20 17 
   4   0   0   0   0   0   0   0  10   0   0   2 19 18 
   2   0   0   0   0  10   0   0   0   0   0   1 18 
   9   0  10   0   0   0   0   0   0   0   0   1 22
   4   0   0   0   0  10   0   0   0   0   0   1 22
   9   0  10   0   0   0   0   0   0   0   0   1 22
   1   0   0  10   0   0   0   0   0   0   0   1 22
   0   0   0   0   0   0   0   0   0   0   0   0 
